c Optimised CNF encoding for 4x4 Sudoku
c Source: sudoku_4x4_04.txt
c Variables: 20  Clauses: 84
c SIZE 4
c MAP 1 1 2 1
c MAP 2 1 2 2
c MAP 3 1 3 1
c MAP 4 1 3 3
c MAP 5 1 4 3
c MAP 6 2 1 1
c MAP 7 2 1 3
c MAP 8 2 2 1
c MAP 9 2 4 3
c MAP 10 2 4 4
c MAP 11 3 1 1
c MAP 12 3 1 2
c MAP 13 3 3 4
c MAP 14 3 4 2
c MAP 15 3 4 4
c MAP 16 4 1 2
c MAP 17 4 2 2
c MAP 18 4 2 4
c MAP 19 4 3 3
c MAP 20 4 3 4
c FIXED 1 1 4
c FIXED 2 3 2
c FIXED 3 2 3
c FIXED 4 4 1
p cnf 20 84
1 2 0
3 4 0
5 0
6 7 0
8 0
9 10 0
11 12 0
13 0
14 15 0
16 0
17 18 0
19 20 0
-1 -2 0
-3 -4 0
-6 -7 0
-9 -10 0
-11 -12 0
-14 -15 0
-17 -18 0
-19 -20 0
1 3 0
2 0
4 5 0
6 8 0
7 9 0
10 0
11 0
12 14 0
13 15 0
16 17 0
19 0
18 20 0
-1 -3 0
-4 -5 0
-6 -8 0
-7 -9 0
-12 -14 0
-13 -15 0
-16 -17 0
-18 -20 0
6 11 0
12 16 0
7 0
1 8 0
2 17 0
18 0
3 0
4 19 0
13 20 0
14 0
5 9 0
10 15 0
-6 -11 0
-12 -16 0
-1 -8 0
-2 -17 0
-4 -19 0
-13 -20 0
-5 -9 0
-10 -15 0
1 6 8 0
2 0
7 0
3 0
4 5 9 0
10 0
11 0
12 16 17 0
18 0
14 0
19 0
13 15 20 0
-1 -6 0
-1 -8 0
-6 -8 0
-4 -5 0
-4 -9 0
-5 -9 0
-12 -16 0
-12 -17 0
-16 -17 0
-13 -15 0
-13 -20 0
-15 -20 0
